6156
5196
1792
8067
1864
9664
568
8803
2978
3150
6047
1136
5199
1096
8694
2592
2489
6682
3658
10145
1302
649
2098
7931
9586
7478
3968
5806
9441
3895
7792
9676
432
2485
6181
8894
7793
3522
1583
7067
2002
3481
1319
2475
3561
2757
4298
903
5515
3862
